10 6 15 4 11 18 19 5 9 13 2 12 0 16 17 1 7 3 14 8  
10 6 15 4 11 18 19 5 2 9 13 12 0 16 17 1 7 3 14 8  
10 6 15 4 11 18 19 5 2 9 13 12 0 16 17 1 7 3 14 8  
10 6 15 4 11 18 5 9 19 2 13 16 0 12 17 1 7 3 14 8  
10 6 15 4 14 11 8 0 18 19 16 5 9 13 12 17 1 7 2 3  
10 6 15 4 14 11 7 18 19 5 8 0 12 9 13 2 17 1 16 3  
10 6 15 4 14 11 7 18 19 5 8 0 12 9 13 2 17 1 16 3  
10 6 15 4 11 18 5 9 19 2 13 16 0 12 17 1 7 3 14 8  
10 6 15 4 11 14 8 0 18 19 12 5 9 13 2 16 17 1 7 3  
10 6 15 4 11 14 8 0 18 19 12 5 9 17 1 13 7 2 16 3  
10 6 15 4 11 14 8 0 18 19 12 5 9 13 2 16 17 1 7 3  
10 6 15 4 11 7 2 5 9 19 18 13 16 0 1 17 12 14 3 8  
10 6 15 4 14 11 7 18 19 5 8 0 12 9 13 2 17 1 16 3  
10 6 15 4 5 11 7 18 9 19 2 13 1 0 16 17 12 14 3 8  
10 6 15 4 11 5 7 18 19 9 13 2 16 0 1 17 12 14 3 8  
10 6 15 4 14 11 5 9 18 19 2 13 16 0 1 17 12 7 3 8  
